c turning on binary mode checking
c parsing input formula with 202048 variables and 780985 clauses
c finished parsing, read 16558266 bytes from proof file
c detected empty clause; start verification via backward checking
c 12673 of 780985 clauses in core                            
c 10764 of 450841 lemmas in core using 130270 resolution steps
c 0 RAT lemmas in core; 983 redundant literals in core lemmas
s VERIFIED
c verification time: 2.188 seconds
